NAME: ./prFile/tspFile/tsp_file87.tsp
COMMENT: TSP file generated by Python
TYPE: TSP
DIMENSION: 40
EDGE_WEIGHT_TYPE: EUC_2D
NODE_COORD_SECTION
1 59 73
2 6 29
3 20 90
4 4 10
5 97 21
6 79 25
7 57 83
8 9 19
9 33 72
10 83 58
11 34 78
12 84 43
13 53 61
14 19 82
15 72 6
16 100 28
17 4 66
18 64 20
19 32 19
20 55 46
21 88 98
22 53 48
23 50 61
24 31 7
25 47 89
26 40 4
27 76 69
28 42 93
29 81 99
30 8 62
31 72 99
32 53 55
33 66 33
34 35 47
35 50 64
36 28 92
37 92 98
38 5 3
39 87 53
40 67 98
EOF
